p cnf 1479
-25 -459
-26 -462
-27 -465
-28 -468
-29 -471
-30 -474
-31 -477
-32 -480
-33 -483
-34 -486
-35 -489
-36 -492
-37 -495
-38 -498
-39 -501
-40 -504
-41 -507
-42 -510
-43 -513
-44 -516
-45 -519
-46 -522
-47 -525
-48 -528
-49 529
-50 530
-51 531
-52 532
-53 533
-54 534
-55 535
-56 536
-57 -26
-57 -27
26 27 57
-58 -28
-58 -29
28 29 58
-59 -30
-59 -31
30 31 59
-60 -32
-60 -33
32 33 60
-61 -34
-61 -35
34 35 61
-62 -36
-62 -37
36 37 62
-63 -38
-63 -39
38 39 63
-64 -40
-64 -41
40 41 64
-65 -42
-65 -43
42 43 65
-66 -44
-66 -45
44 45 66
-67 -46
-67 -47
46 47 67
-68 -48
-68 -49
48 49 68
-69 -50
-69 -51
50 51 69
-70 -52
-70 -53
52 53 70
-71 -54
-71 -55
54 55 71
-72 57
-72 58
-57 -58 72
-73 59
-73 60
-59 -60 73
-74 61
-74 62
-61 -62 74
-75 63
-75 64
-63 -64 75
-76 65
-76 66
-65 -66 76
-77 67
-77 68
-67 -68 77
-78 69
-78 70
-69 -70 78
-79 -56
-79 71
56 -71 79
-80 72
-80 73
-72 -73 80
-81 74
-81 75
-74 -75 81
-82 76
-82 77
-76 -77 82
-83 78
-83 79
-78 -79 83
-84 80
-84 81
-80 -81 84
-85 82
-85 83
-82 -83 85
-86 84
-86 85
-84 -85 86
-87 -25
-87 26
25 -26 87
-88 25
-88 -26
-25 26 88
-89 -87
-89 -88
87 88 89
-90 25
-90 26
-25 -26 90
-91 -25
-91 -89
25 89 91
-92 25
-92 89
-25 -89 92
-93 -91
-93 -92
91 92 93
-94 25
-94 -89
-25 89 94
-95 -90
-95 -94
90 94 95
-96 -26
-96 27
26 -27 96
-97 26
-97 -27
-26 27 97
-98 -96
-98 -97
96 97 98
-99 26
-99 27
-26 -27 99
-100 95
-100 -98
-95 98 100
-101 -95
-101 98
95 -98 101
-102 -100
-102 -101
100 101 102
-103 -95
-103 -98
95 98 103
-104 -99
-104 -103
99 103 104
-105 -27
-105 28
27 -28 105
-106 27
-106 -28
-27 28 106
-107 -105
-107 -106
105 106 107
-108 27
-108 28
-27 -28 108
-109 104
-109 -107
-104 107 109
-110 -104
-110 107
104 -107 110
-111 -109
-111 -110
109 110 111
-112 -104
-112 -107
104 107 112
-113 -108
-113 -112
108 112 113
-114 -28
-114 29
28 -29 114
-115 28
-115 -29
-28 29 115
-116 -114
-116 -115
114 115 116
-117 28
-117 29
-28 -29 117
-118 113
-118 -116
-113 116 118
-119 -113
-119 116
113 -116 119
-120 -118
-120 -119
118 119 120
-121 -113
-121 -116
113 116 121
-122 -117
-122 -121
117 121 122
-123 -29
-123 30
29 -30 123
-124 29
-124 -30
-29 30 124
-125 -123
-125 -124
123 124 125
-126 29
-126 30
-29 -30 126
-127 122
-127 -125
-122 125 127
-128 -122
-128 125
122 -125 128
-129 -127
-129 -128
127 128 129
-130 -122
-130 -125
122 125 130
-131 -126
-131 -130
126 130 131
-132 -30
-132 31
30 -31 132
-133 30
-133 -31
-30 31 133
-134 -132
-134 -133
132 133 134
-135 30
-135 31
-30 -31 135
-136 131
-136 -134
-131 134 136
-137 -131
-137 134
131 -134 137
-138 -136
-138 -137
136 137 138
-139 -131
-139 -134
131 134 139
-140 -135
-140 -139
135 139 140
-141 -31
-141 32
31 -32 141
-142 31
-142 -32
-31 32 142
-143 -141
-143 -142
141 142 143
-144 31
-144 32
-31 -32 144
-145 140
-145 -143
-140 143 145
-146 -140
-146 143
140 -143 146
-147 -145
-147 -146
145 146 147
-148 -140
-148 -143
140 143 148
-149 -144
-149 -148
144 148 149
-150 -32
-150 33
32 -33 150
-151 32
-151 -33
-32 33 151
-152 -150
-152 -151
150 151 152
-153 32
-153 33
-32 -33 153
-154 149
-154 -152
-149 152 154
-155 -149
-155 152
149 -152 155
-156 -154
-156 -155
154 155 156
-157 -149
-157 -152
149 152 157
-158 -153
-158 -157
153 157 158
-159 -33
-159 34
33 -34 159
-160 33
-160 -34
-33 34 160
-161 -159
-161 -160
159 160 161
-162 33
-162 34
-33 -34 162
-163 158
-163 -161
-158 161 163
-164 -158
-164 161
158 -161 164
-165 -163
-165 -164
163 164 165
-166 -158
-166 -161
158 161 166
-167 -162
-167 -166
162 166 167
-168 -34
-168 35
34 -35 168
-169 34
-169 -35
-34 35 169
-170 -168
-170 -169
168 169 170
-171 34
-171 35
-34 -35 171
-172 167
-172 -170
-167 170 172
-173 -167
-173 170
167 -170 173
-174 -172
-174 -173
172 173 174
-175 -167
-175 -170
167 170 175
-176 -171
-176 -175
171 175 176
-177 -35
-177 36
35 -36 177
-178 35
-178 -36
-35 36 178
-179 -177
-179 -178
177 178 179
-180 35
-180 36
-35 -36 180
-181 176
-181 -179
-176 179 181
-182 -176
-182 179
176 -179 182
-183 -181
-183 -182
181 182 183
-184 -176
-184 -179
176 179 184
-185 -180
-185 -184
180 184 185
-186 -36
-186 37
36 -37 186
-187 36
-187 -37
-36 37 187
-188 -186
-188 -187
186 187 188
-189 36
-189 37
-36 -37 189
-190 185
-190 -188
-185 188 190
-191 -185
-191 188
185 -188 191
-192 -190
-192 -191
190 191 192
-193 -185
-193 -188
185 188 193
-194 -189
-194 -193
189 193 194
-195 -37
-195 38
37 -38 195
-196 37
-196 -38
-37 38 196
-197 -195
-197 -196
195 196 197
-198 37
-198 38
-37 -38 198
-199 194
-199 -197
-194 197 199
-200 -194
-200 197
194 -197 200
-201 -199
-201 -200
199 200 201
-202 -194
-202 -197
194 197 202
-203 -198
-203 -202
198 202 203
-204 -38
-204 39
38 -39 204
-205 38
-205 -39
-38 39 205
-206 -204
-206 -205
204 205 206
-207 38
-207 39
-38 -39 207
-208 203
-208 -206
-203 206 208
-209 -203
-209 206
203 -206 209
-210 -208
-210 -209
208 209 210
-211 -203
-211 -206
203 206 211
-212 -207
-212 -211
207 211 212
-213 -39
-213 40
39 -40 213
-214 39
-214 -40
-39 40 214
-215 -213
-215 -214
213 214 215
-216 39
-216 40
-39 -40 216
-217 212
-217 -215
-212 215 217
-218 -212
-218 215
212 -215 218
-219 -217
-219 -218
217 218 219
-220 -212
-220 -215
212 215 220
-221 -216
-221 -220
216 220 221
-222 -40
-222 41
40 -41 222
-223 40
-223 -41
-40 41 223
-224 -222
-224 -223
222 223 224
-225 40
-225 41
-40 -41 225
-226 221
-226 -224
-221 224 226
-227 -221
-227 224
221 -224 227
-228 -226
-228 -227
226 227 228
-229 -221
-229 -224
221 224 229
-230 -225
-230 -229
225 229 230
-231 -41
-231 42
41 -42 231
-232 41
-232 -42
-41 42 232
-233 -231
-233 -232
231 232 233
-234 41
-234 42
-41 -42 234
-235 230
-235 -233
-230 233 235
-236 -230
-236 233
230 -233 236
-237 -235
-237 -236
235 236 237
-238 -230
-238 -233
230 233 238
-239 -234
-239 -238
234 238 239
-240 -42
-240 43
42 -43 240
-241 42
-241 -43
-42 43 241
-242 -240
-242 -241
240 241 242
-243 42
-243 43
-42 -43 243
-244 239
-244 -242
-239 242 244
-245 -239
-245 242
239 -242 245
-246 -244
-246 -245
244 245 246
-247 -239
-247 -242
239 242 247
-248 -243
-248 -247
243 247 248
-249 -43
-249 44
43 -44 249
-250 43
-250 -44
-43 44 250
-251 -249
-251 -250
249 250 251
-252 43
-252 44
-43 -44 252
-253 248
-253 -251
-248 251 253
-254 -248
-254 251
248 -251 254
-255 -253
-255 -254
253 254 255
-256 -248
-256 -251
248 251 256
-257 -252
-257 -256
252 256 257
-258 -44
-258 45
44 -45 258
-259 44
-259 -45
-44 45 259
-260 -258
-260 -259
258 259 260
-261 44
-261 45
-44 -45 261
-262 257
-262 -260
-257 260 262
-263 -257
-263 260
257 -260 263
-264 -262
-264 -263
262 263 264
-265 -257
-265 -260
257 260 265
-266 -261
-266 -265
261 265 266
-267 -45
-267 46
45 -46 267
-268 45
-268 -46
-45 46 268
-269 -267
-269 -268
267 268 269
-270 45
-270 46
-45 -46 270
-271 266
-271 -269
-266 269 271
-272 -266
-272 269
266 -269 272
-273 -271
-273 -272
271 272 273
-274 -266
-274 -269
266 269 274
-275 -270
-275 -274
270 274 275
-276 -46
-276 47
46 -47 276
-277 46
-277 -47
-46 47 277
-278 -276
-278 -277
276 277 278
-279 46
-279 47
-46 -47 279
-280 275
-280 -278
-275 278 280
-281 -275
-281 278
275 -278 281
-282 -280
-282 -281
280 281 282
-283 -275
-283 -278
275 278 283
-284 -279
-284 -283
279 283 284
-285 -47
-285 48
47 -48 285
-286 47
-286 -48
-47 48 286
-287 -285
-287 -286
285 286 287
-288 47
-288 48
-47 -48 288
-289 284
-289 -287
-284 287 289
-290 -284
-290 287
284 -287 290
-291 -289
-291 -290
289 290 291
-292 -284
-292 -287
284 287 292
-293 -288
-293 -292
288 292 293
-294 -48
-294 49
48 -49 294
-295 48
-295 -49
-48 49 295
-296 -294
-296 -295
294 295 296
-297 48
-297 49
-48 -49 297
-298 293
-298 -296
-293 296 298
-299 -293
-299 296
293 -296 299
-300 -298
-300 -299
298 299 300
-301 -293
-301 -296
293 296 301
-302 -297
-302 -301
297 301 302
-303 -49
-303 50
49 -50 303
-304 49
-304 -50
-49 50 304
-305 -303
-305 -304
303 304 305
-306 49
-306 50
-49 -50 306
-307 302
-307 -305
-302 305 307
-308 -302
-308 305
302 -305 308
-309 -307
-309 -308
307 308 309
-310 -302
-310 -305
302 305 310
-311 -306
-311 -310
306 310 311
-312 -50
-312 51
50 -51 312
-313 50
-313 -51
-50 51 313
-314 -312
-314 -313
312 313 314
-315 50
-315 51
-50 -51 315
-316 311
-316 -314
-311 314 316
-317 -311
-317 314
311 -314 317
-318 -316
-318 -317
316 317 318
-319 -311
-319 -314
311 314 319
-320 -315
-320 -319
315 319 320
-321 -51
-321 52
51 -52 321
-322 51
-322 -52
-51 52 322
-323 -321
-323 -322
321 322 323
-324 51
-324 52
-51 -52 324
-325 320
-325 -323
-320 323 325
-326 -320
-326 323
320 -323 326
-327 -325
-327 -326
325 326 327
-328 -320
-328 -323
320 323 328
-329 -324
-329 -328
324 328 329
-330 -52
-330 53
52 -53 330
-331 52
-331 -53
-52 53 331
-332 -330
-332 -331
330 331 332
-333 52
-333 53
-52 -53 333
-334 329
-334 -332
-329 332 334
-335 -329
-335 332
329 -332 335
-336 -334
-336 -335
334 335 336
-337 -329
-337 -332
329 332 337
-338 -333
-338 -337
333 337 338
-339 -53
-339 54
53 -54 339
-340 53
-340 -54
-53 54 340
-341 -339
-341 -340
339 340 341
-342 53
-342 54
-53 -54 342
-343 338
-343 -341
-338 341 343
-344 -338
-344 341
338 -341 344
-345 -343
-345 -344
343 344 345
-346 -338
-346 -341
338 341 346
-347 -342
-347 -346
342 346 347
-348 -54
-348 55
54 -55 348
-349 54
-349 -55
-54 55 349
-350 -348
-350 -349
348 349 350
-351 54
-351 55
-54 -55 351
-352 347
-352 -350
-347 350 352
-353 -347
-353 350
347 -350 353
-354 -352
-354 -353
352 353 354
-355 -347
-355 -350
347 350 355
-356 -351
-356 -355
351 355 356
-357 -55
-357 56
55 -56 357
-358 55
-358 -56
-55 56 358
-359 -357
-359 -358
357 358 359
-360 55
-360 56
-55 -56 360
-361 356
-361 -359
-356 359 361
-362 -356
-362 359
356 -359 362
-363 -361
-363 -362
361 362 363
-364 -356
-364 -359
356 359 364
-365 -360
-365 -364
360 364 365
-366 25
-366 -93
-25 93 366
-367 -25
-367 27
25 -27 367
-368 -366
-368 -367
366 367 368
-369 25
-369 -102
-25 102 369
-370 -25
-370 28
25 -28 370
-371 -369
-371 -370
369 370 371
-372 25
-372 -111
-25 111 372
-373 -25
-373 29
25 -29 373
-374 -372
-374 -373
372 373 374
-375 25
-375 -120
-25 120 375
-376 -25
-376 30
25 -30 376
-377 -375
-377 -376
375 376 377
-378 25
-378 -129
-25 129 378
-379 -25
-379 31
25 -31 379
-380 -378
-380 -379
378 379 380
-381 25
-381 -138
-25 138 381
-382 -25
-382 32
25 -32 382
-383 -381
-383 -382
381 382 383
-384 25
-384 -147
-25 147 384
-385 -25
-385 33
25 -33 385
-386 -384
-386 -385
384 385 386
-387 25
-387 -156
-25 156 387
-388 -25
-388 34
25 -34 388
-389 -387
-389 -388
387 388 389
-390 25
-390 -165
-25 165 390
-391 -25
-391 35
25 -35 391
-392 -390
-392 -391
390 391 392
-393 25
-393 -174
-25 174 393
-394 -25
-394 36
25 -36 394
-395 -393
-395 -394
393 394 395
-396 25
-396 -183
-25 183 396
-397 -25
-397 37
25 -37 397
-398 -396
-398 -397
396 397 398
-399 25
-399 -192
-25 192 399
-400 -25
-400 38
25 -38 400
-401 -399
-401 -400
399 400 401
-402 25
-402 -201
-25 201 402
-403 -25
-403 39
25 -39 403
-404 -402
-404 -403
402 403 404
-405 25
-405 -210
-25 210 405
-406 -25
-406 40
25 -40 406
-407 -405
-407 -406
405 406 407
-408 25
-408 -219
-25 219 408
-409 -25
-409 41
25 -41 409
-410 -408
-410 -409
408 409 410
-411 25
-411 -228
-25 228 411
-412 -25
-412 42
25 -42 412
-413 -411
-413 -412
411 412 413
-414 25
-414 -237
-25 237 414
-415 -25
-415 43
25 -43 415
-416 -414
-416 -415
414 415 416
-417 25
-417 -246
-25 246 417
-418 -25
-418 44
25 -44 418
-419 -417
-419 -418
417 418 419
-420 25
-420 -255
-25 255 420
-421 -25
-421 45
25 -45 421
-422 -420
-422 -421
420 421 422
-423 25
-423 -264
-25 264 423
-424 -25
-424 46
25 -46 424
-425 -423
-425 -424
423 424 425
-426 25
-426 -273
-25 273 426
-427 -25
-427 47
25 -47 427
-428 -426
-428 -427
426 427 428
-429 25
-429 -282
-25 282 429
-430 -25
-430 48
25 -48 430
-431 -429
-431 -430
429 430 431
-432 25
-432 -291
-25 291 432
-433 -25
-433 49
25 -49 433
-434 -432
-434 -433
432 433 434
-435 25
-435 -300
-25 300 435
-436 -25
-436 50
25 -50 436
-437 -435
-437 -436
435 436 437
-438 25
-438 -309
-25 309 438
-439 -25
-439 51
25 -51 439
-440 -438
-440 -439
438 439 440
-441 25
-441 -318
-25 318 441
-442 -25
-442 52
25 -52 442
-443 -441
-443 -442
441 442 443
-444 25
-444 -327
-25 327 444
-445 -25
-445 53
25 -53 445
-446 -444
-446 -445
444 445 446
-447 25
-447 -336
-25 336 447
-448 -25
-448 54
25 -54 448
-449 -447
-449 -448
447 448 449
-450 25
-450 -345
-25 345 450
-451 -25
-451 55
25 -55 451
-452 -450
-452 -451
450 451 452
-453 25
-453 -354
-25 354 453
-454 -25
-454 56
25 -56 454
-455 -453
-455 -454
453 454 455
-456 25
-456 -363
-25 363 456
-457 1
-457 86
-1 -86 457
-458 -86
-458 87
86 -87 458
-459 -457
-459 -458
457 458 459
-460 2
-460 86
-2 -86 460
-461 -86
-461 -368
86 368 461
-462 -460
-462 -461
460 461 462
-463 3
-463 86
-3 -86 463
-464 -86
-464 -371
86 371 464
-465 -463
-465 -464
463 464 465
-466 4
-466 86
-4 -86 466
-467 -86
-467 -374
86 374 467
-468 -466
-468 -467
466 467 468
-469 5
-469 86
-5 -86 469
-470 -86
-470 -377
86 377 470
-471 -469
-471 -470
469 470 471
-472 6
-472 86
-6 -86 472
-473 -86
-473 -380
86 380 473
-474 -472
-474 -473
472 473 474
-475 7
-475 86
-7 -86 475
-476 -86
-476 -383
86 383 476
-477 -475
-477 -476
475 476 477
-478 8
-478 86
-8 -86 478
-479 -86
-479 -386
86 386 479
-480 -478
-480 -479
478 479 480
-481 9
-481 86
-9 -86 481
-482 -86
-482 -389
86 389 482
-483 -481
-483 -482
481 482 483
-484 10
-484 86
-10 -86 484
-485 -86
-485 -392
86 392 485
-486 -484
-486 -485
484 485 486
-487 11
-487 86
-11 -86 487
-488 -86
-488 -395
86 395 488
-489 -487
-489 -488
487 488 489
-490 12
-490 86
-12 -86 490
-491 -86
-491 -398
86 398 491
-492 -490
-492 -491
490 491 492
-493 13
-493 86
-13 -86 493
-494 -86
-494 -401
86 401 494
-495 -493
-495 -494
493 494 495
-496 14
-496 86
-14 -86 496
-497 -86
-497 -404
86 404 497
-498 -496
-498 -497
496 497 498
-499 15
-499 86
-15 -86 499
-500 -86
-500 -407
86 407 500
-501 -499
-501 -500
499 500 501
-502 16
-502 86
-16 -86 502
-503 -86
-503 -410
86 410 503
-504 -502
-504 -503
502 503 504
-505 17
-505 86
-17 -86 505
-506 -86
-506 -413
86 413 506
-507 -505
-507 -506
505 506 507
-508 18
-508 86
-18 -86 508
-509 -86
-509 -416
86 416 509
-510 -508
-510 -509
508 509 510
-511 19
-511 86
-19 -86 511
-512 -86
-512 -419
86 419 512
-513 -511
-513 -512
511 512 513
-514 20
-514 86
-20 -86 514
-515 -86
-515 -422
86 422 515
-516 -514
-516 -515
514 515 516
-517 21
-517 86
-21 -86 517
-518 -86
-518 -425
86 425 518
-519 -517
-519 -518
517 518 519
-520 22
-520 86
-22 -86 520
-521 -86
-521 -428
86 428 521
-522 -520
-522 -521
520 521 522
-523 23
-523 86
-23 -86 523
-524 -86
-524 -431
86 431 524
-525 -523
-525 -524
523 524 525
-526 24
-526 86
-24 -86 526
-527 -86
-527 -434
86 434 527
-528 -526
-528 -527
526 527 528
-529 -86
-529 -437
86 437 529
-530 -86
-530 -440
86 440 530
-531 -86
-531 -443
86 443 531
-532 -86
-532 -446
86 446 532
-533 -86
-533 -449
86 449 533
-534 -86
-534 -452
86 452 534
-535 -86
-535 -455
86 455 535
-536 -86
-536 456
86 -456 536
-537 -56
-537 365
56 -365 537
-538 25
-538 -537
-25 537 538
538
